Optimal - objective value 20370.61000000
      5 x0_6                   1                       0
      6 x0_7                   1         0.400000000001225
      7 x1_0                   1         42.3900000000002
     15 x2_1                   1         -20.5599999999999
     21 x3_0                   1         96.5500000000001
     31 x4_3                   1         21.3000000000002
     39 x5_4                   1         -19.7600000000001
     47 x6_5                   1                       0
     51 x7_2                   1         -1.37000000000116
     56 u1                    18                       0
     57 u2                     8                       0
     58 u3                    18                       0
     59 u4                    14                       0
     60 u5                    10                       0
     61 u6                     6                       0
     62 u7                     4                       0
